NAME: random72
TYPE: TSP
DIMENSION: 72
EDGE_WEIGHT_TYPE: EXPLICIT
EDGE_WEIGHT_FORMAT: FULL_MATRIX
EDGE_WEIGHT_SECTION
0 127 127 127 19 127 127 127 127 127 127 127 127 127 127 127 127 127 127 25 127 127 127 127 127 127 127 127 127 127 127 127 127 127 127 127 127 127 127 127 127 127 21 127 127 127 127 127 127 127 127 127 127 127 127 127 127 127 127 127 127 127 127 15 127 127 127 127 18 16 127 127
127 0 127 127 127 127 17 127 127 127 127 127 127 127 127 127 127 127 127 127 127 127 127 127 127 127 127 127 6 127 127 127 127 127 127 127 127 127 127 127 14 127 127 127 127 127 127 127 127 16 127 127 11 127 127 127 127 127 127 127 127 127 9 127 127 127 127 127 127 127 127 10
127 127 0 127 127 127 127 5 127 21 127 127 127 127 12 127 127 127 127 127 127 127 127 23 127 127 127 127 127 127 127 127 127 127 21 127 127 127 127 127 22 127 127 127 127 127 127 127 127 127 127 127 18 127 127 127 127 20 127 11 127 127 127 127 127 127 127 127 127 127 127 127
127 127 127 0 127 127 127 127 127 127 127 127 16 127 127 10 127 127 127 127 127 127 127 127 10 127 127 127 127 127 127 127 127 127 127 127 127 127 127 127 127 127 127 4 127 127 127 127 8 127 127 127 127 127 127 127 127 127 127 127 127 127 127 127 127 127 127 127 127 127 127 127
19 127 127 127 0 127 127 127 127 127 127 127 127 127 127 127 127 127 127 127 127 127 127 127 127 127 127 127 127 127 127 127 127 127 127 127 127 127 5 127 127 127 13 127 127 127 127 127 127 127 127 127 127 127 127 127 127 127 127 127 127 127 127 127 127 127 127 127 127 6 127 127
127 127 127 127 127 0 127 127 22 127 127 127 127 127 25 127 127 127 127 28 127 127 127 127 127 127 127 127 127 127 127 127 22 127 127 127 127 127 127 127 127 127 127 127 127 127 127 127 127 127 127 22 127 127 42 127 127 127 127 127 127 127 127 41 127 53 127 127 127 127 127 127
127 17 127 127 127 127 0 127 127 127 9 127 127 127 127 127 127 127 127 127 127 127 127 127 127 127 127 127 127 127 127 127 127 127 127 127 127 127 127 127 12 127 127 127 127 127 127 127 127 6 127 127 127 127 127 127 127 127 127 127 127 127 127 127 127 127 10 127 127 127 127 127
127 127 5 127 127 127 127 0 127 127 127 127 127 127 8 127 127 127 127 6 127 127 127 127 127 127 127 127 127 127 127 127 127 127 127 127 127 127 127 127 127 127 127 127 127 127 127 127 127 127 127 127 127 127 127 127 127 127 127 11 127 127 127 127 127 127 127 127 127 127 127 127
127 127 127 127 127 22 127 127 0 127 127 127 127 127 127 127 11 127 127 127 127 127 11 127 127 127 127 127 127 127 127 127 13 127 127 14 127 127 127 127 127 127 127 127 127 127 127 127 127 127 3 4 127 127 127 127 127 9 127 127 127 127 127 127 127 127 127 127 127 127 127 127
127 127 21 127 127 127 127 127 127 0 127 127 127 127 127 127 127 127 127 127 127 127 127 127 127 127 127 127 127 127 127 127 127 127 1 11 127 127 127 127 127 127 127 127 127 127 127 127 127 127 127 127 127 127 127 127 127 8 127 127 127 127 127 127 127 127 127 127 127 127 127 127
127 127 127 127 127 127 9 127 127 127 0 127 127 127 127 127 127 16 127 127 127 127 127 127 127 16 127 127 127 127 127 127 127 127 127 127 127 127 127 127 127 127 127 127 127 127 127 127 127 12 127 127 127 127 127 127 7 127 127 127 127 127 127 127 127 127 14 127 127 127 127 127
127 127 127 127 127 127 127 127 127 127 127 0 11 127 127 16 127 127 127 127 9 127 127 127 12 127 127 127 127 127 127 127 127 127 127 127 127 127 127 127 127 127 127 127 127 127 127 127 127 127 127 127 127 12 127 127 127 127 127 127 12 127 127 127 127 127 127 127 127 127 20 15
127 127 127 16 127 127 127 127 127 127 127 11 0 127 127 127 127 127 127 127 127 127 127 127 8 127 127 127 7 127 127 127 127 127 127 127 127 127 127 127 127 127 127 127 127 127 127 127 18 127 127 127 127 127 127 127 127 127 127 127 7 127 7 127 127 127 127 127 127 127 127 127
127 127 127 127 127 127 127 127 127 127 127 127 127 0 127 127 127 127 127 127 127 5 127 127 127 127 9 127 127 13 127 127 127 127 127 127 127 127 127 127 127 127 127 127 127 127 127 127 127 127 127 127 127 127 127 127 127 127 127 127 127 127 127 127 127 127 127 127 127 50 127 127
127 127 12 127 127 25 127 8 127 127 127 127 127 127 0 127 127 127 127 8 127 127 127 127 127 127 127 127 127 127 127 127 127 127 127 127 127 127 127 127 127 127 127 127 127 127 127 127 127 127 127 12 127 127 127 127 127 14 127 127 127 127 127 127 127 127 127 127 127 127 127 127
127 127 127 10 127 127 127 127 127 127 127 16 127 127 127 0 127 127 127 127 127 127 127 127 7 127 127 127 127 127 127 11 127 127 127 127 127 127 127 127 127 127 127 11 127 127 127 127 127 127 127 127 127 127 127 127 127 127 6 127 127 127 127 127 127 127 127 127 127 127 12 127
127 127 127 127 127 127 127 127 11 127 127 127 127 127 127 127 0 127 127 127 127 127 9 127 127 127 127 127 127 127 127 127 2 127 127 127 127 127 127 127 127 127 127 127 127 127 127 127 127 127 127 127 127 127 127 127 127 127 127 127 127 127 127 127 127 127 127 5 127 127 127 127
127 127 127 127 127 127 127 127 127 127 16 127 127 127 127 127 127 0 127 127 127 127 127 127 127 14 10 127 127 127 127 127 127 127 127 127 127 127 127 127 127 4 127 127 10 127 127 127 127 127 127 127 127 127 127 127 19 127 127 127 127 127 127 127 127 127 127 127 127 127 127 127
127 127 127 127 127 127 127 127 127 127 127 127 127 127 127 127 127 127 0 127 127 127 127 127 127 127 64 127 127 127 127 24 127 24 127 127 127 127 127 127 127 127 127 12 127 127 127 127 19 127 127 127 127 127 127 127 127 127 18 127 127 127 127 127 127 127 127 127 127 127 26 127
25 127 127 127 127 28 127 6 127 127 127 127 127 127 8 127 127 127 127 0 127 127 127 127 127 127 127 127 127 127 127 127 127 127 127 127 127 127 127 127 127 127 127 127 127 127 127 127 127 127 127 127 127 127 127 127 127 127 127 11 127 127 127 35 127 127 127 127 16 127 127 127
127 127 127 127 127 127 127 127 127 127 127 9 127 127 127 127 127 127 127 127 0 127 127 127 127 127 127 127 127 127 127 127 127 127 127 127 127 127 127 127 127 127 127 127 127 127 21 127 127 127 127 127 127 14 127 28 127 127 127 127 127 127 127 127 127 127 127 127 127 127 17 127
127 127 127 127 127 127 127 127 127 127 127 127 127 5 127 127 127 127 127 127 127 0 127 127 127 127 10 127 127 8 127 127 127 127 127 127 127 127 127 127 127 10 127 127 10 127 127 127 127 127 127 127 127 127 127 127 127 127 127 127 127 127 127 127 127 127 127 127 127 127 127 127
127 127 127 127 127 127 127 127 11 127 127 127 127 127 127 127 9 127 127 127 127 127 0 127 127 127 127 127 127 127 127 127 127 127 127 9 127 127 127 127 127 127 127 127 127 6 127 127 127 127 127 127 127 127 127 127 127 127 127 127 127 127 127 127 7 127 127 10 127 127 127 127
127 127 23 127 127 127 127 127 127 127 127 127 127 127 127 127 127 127 127 127 127 127 127 0 127 127 127 127 127 127 15 127 127 127 127 127 6 20 127 127 8 127 17 127 127 127 127 127 127 127 127 127 127 127 127 127 127 127 127 21 127 127 127 127 127 127 8 127 127 127 127 127
127 127 127 10 127 127 127 127 127 127 127 12 8 127 127 7 127 127 127 127 127 127 127 127 0 127 127 127 127 127 127 127 127 127 127 127 127 127 127 127 127 127 127 127 127 127 127 127 127 127 127 127 127 127 127 127 127 127 127 127 127 127 127 127 127 127 127 127 127 127 127 127
127 127 127 127 127 127 127 127 127 127 16 127 127 127 127 127 127 14 127 127 127 127 127 127 127 0 127 127 127 127 16 127 127 127 127 127 8 127 127 127 127 127 127 127 15 127 127 127 127 127 127 127 127 127 127 127 127 127 127 127 127 127 127 127 127 127 10 127 127 127 127 127
127 127 127 127 127 127 127 127 127 127 127 127 127 9 127 127 127 10 64 127 127 10 127 127 127 127 0 127 127 127 127 127 127 41 127 127 127 127 127 127 127 8 127 127 127 127 127 127 127 127 127 127 127 127 127 127 24 127 127 127 127 127 127 127 127 127 127 127 127 127 127 127
127 127 127 127 127 127 127 127 127 127 127 127 127 127 127 127 127 127 127 127 127 127 127 127 127 127 127 0 127 127 127 127 127 127 127 127 127 127 127 6 127 127 127 127 127 127 127 9 127 127 127 127 127 127 127 127 127 127 127 127 127 12 127 127 127 14 127 14 127 127 127 127
127 6 127 127 127 127 127 127 127 127 127 127 7 127 127 127 127 127 127 127 127 127 127 127 127 127 127 127 0 127 127 127 127 127 127 127 127 127 127 127 127 127 127 127 127 127 127 127 127 127 127 127 127 127 127 127 127 127 127 127 3 127 5 127 127 127 127 127 127 127 127 8
127 127 127 127 127 127 127 127 127 127 127 127 127 13 127 127 127 127 127 127 127 8 127 127 127 127 127 127 127 0 127 127 127 127 127 127 127 127 27 127 127 127 127 127 5 127 127 127 127 127 127 127 127 127 127 127 127 127 127 127 127 127 127 127 127 127 127 127 127 38 127 127
127 127 127 127 127 127 127 127 127 127 127 127 127 127 127 127 127 127 127 127 127 127 127 15 127 16 127 127 127 127 0 127 127 127 127 127 15 127 10 127 127 127 8 127 24 127 127 127 127 127 127 127 127 127 127 127 127 127 127 127 127 127 127 127 127 127 127 127 127 127 127 127
127 127 127 127 127 127 127 127 127 127 127 127 127 127 127 11 127 127 24 127 127 127 127 127 127 127 127 127 127 127 127 0 127 127 127 127 127 127 127 127 127 127 127 127 127 127 127 127 127 127 127 127 127 127 127 127 127 127 6 127 127 127 127 127 127 127 127 127 127 127 2 127
127 127 127 127 127 22 127 127 13 127 127 127 127 127 127 127 2 127 127 127 127 127 127 127 127 127 127 127 127 127 127 127 0 127 127 127 127 127 127 127 127 127 127 127 127 127 127 127 127 127 127 127 127 127 127 127 127 127 127 127 127 127 127 127 127 32 127 5 127 127 127 127
127 127 127 127 127 127 127 127 127 127 127 127 127 127 127 127 127 127 24 127 127 127 127 127 127 127 41 127 127 127 127 127 127 0 127 127 127 127 127 127 127 127 127 127 127 127 127 127 9 16 127 127 127 127 127 127 18 127 127 127 127 127 127 127 127 127 127 127 127 127 127 127
127 127 21 127 127 127 127 127 127 1 127 127 127 127 127 127 127 127 127 127 127 127 127 127 127 127 127 127 127 127 127 127 127 127 0 11 127 127 127 127 127 127 127 127 127 127 127 127 127 127 127 127 16 15 127 127 127 127 127 127 127 127 127 127 127 127 127 127 127 127 127 127
127 127 127 127 127 127 127 127 14 11 127 127 127 127 127 127 127 127 127 127 127 127 9 127 127 127 127 127 127 127 127 127 127 127 11 0 127 127 127 127 127 127 127 127 127 127 14 127 127 127 127 127 127 20 127 127 127 12 127 127 127 127 127 127 3 127 127 127 127 127 127 127
127 127 127 127 127 127 127 127 127 127 127 127 127 127 127 127 127 127 127 127 127 127 127 6 127 8 127 127 127 127 15 127 127 127 127 127 0 127 127 127 127 127 127 127 127 127 127 127 127 127 127 127 127 127 127 127 127 127 127 127 127 127 127 127 127 127 4 127 127 127 127 127
127 127 127 127 127 127 127 127 127 127 127 127 127 127 127 127 127 127 127 127 127 127 127 20 127 127 127 127 127 127 127 127 127 127 127 127 127 0 127 127 127 127 10 127 127 127 127 127 127 127 127 127 127 127 127 127 127 127 127 4 127 127 127 127 127 127 127 127 3 127 127 127
127 127 127 127 5 127 127 127 127 127 127 127 127 127 127 127 127 127 127 127 127 127 127 127 127 127 127 127 127 27 10 127 127 127 127 127 127 127 0 127 127 127 13 127 27 127 127 127 127 127 127 127 127 127 127 127 127 127 127 127 127 127 127 127 127 127 127 127 127 11 127 127
127 127 127 127 127 127 127 127 127 127 127 127 127 127 127 127 127 127 127 127 127 127 127 127 127 127 127 6 127 127 127 127 127 127 127 127 127 127 127 0 127 127 127 127 127 10 127 7 127 127 127 127 127 127 127 127 127 127 127 127 127 127 127 127 127 127 127 14 127 127 127 127
127 14 22 127 127 127 12 127 127 127 127 127 127 127 127 127 127 127 127 127 127 127 127 8 127 127 127 127 127 127 127 127 127 127 127 127 127 127 127 127 0 127 127 127 127 127 127 127 127 127 127 127 19 127 127 127 127 127 127 127 127 127 127 127 127 127 9 127 127 127 127 127
127 127 127 127 127 127 127 127 127 127 127 127 127 127 127 127 127 4 127 127 127 10 127 127 127 127 8 127 127 127 127 127 127 127 127 127 127 127 127 127 127 0 127 127 7 127 127 127 127 127 127 127 127 127 127 127 127 127 127 127 127 127 127 127 127 127 127 127 127 127 127 127
21 127 127 127 13 127 127 127 127 127 127 127 127 127 127 127 127 127 127 127 127 127 127 17 127 127 127 127 127 127 8 127 127 127 127 127 127 10 13 127 127 127 0 127 127 127 127 127 127 127 127 127 127 127 127 127 127 127 127 127 127 127 127 127 127 127 127 127 9 127 127 127
127 127 127 4 127 127 127 127 127 127 127 127 127 127 127 11 127 127 12 127 127 127 127 127 127 127 127 127 127 127 127 127 127 127 127 127 127 127 127 127 127 127 127 0 127 127 127 127 9 127 127 127 127 127 127 127 127 127 14 127 127 127 127 127 127 127 127 127 127 127 127 127
127 127 127 127 127 127 127 127 127 127 127 127 127 127 127 127 127 10 127 127 127 10 127 127 127 15 127 127 127 5 24 127 127 127 127 127 127 127 27 127 127 7 127 127 0 127 127 127 127 127 127 127 127 127 127 127 127 127 127 127 127 127 127 127 127 127 127 127 127 127 127 127
127 127 127 127 127 127 127 127 127 127 127 127 127 127 127 127 127 127 127 127 127 127 6 127 127 127 127 127 127 127 127 127 127 127 127 127 127 127 127 10 127 127 127 127 127 0 14 15 127 127 127 127 127 127 127 127 127 127 127 127 127 127 127 127 5 127 127 13 127 127 127 127
127 127 127 127 127 127 127 127 127 127 127 127 127 127 127 127 127 127 127 127 21 127 127 127 127 127 127 127 127 127 127 127 127 127 127 14 127 127 127 127 127 127 127 127 127 14 0 18 127 127 127 127 127 18 127 17 127 127 127 127 127 127 127 127 13 127 127 127 127 127 127 127
127 127 127 127 127 127 127 127 127 127 127 127 127 127 127 127 127 127 127 127 127 127 127 127 127 127 127 9 127 127 127 127 127 127 127 127 127 127 127 7 127 127 127 127 127 15 18 0 127 127 127 127 127 127 127 18 127 127 127 127 127 13 127 127 127 127 127 127 127 127 127 127
127 127 127 8 127 127 127 127 127 127 127 127 18 127 127 127 127 127 19 127 127 127 127 127 127 127 127 127 127 127 127 127 127 9 127 127 127 127 127 127 127 127 127 9 127 127 127 127 0 20 127 127 127 127 127 127 127 127 127 127 127 127 17 127 127 127 127 127 127 127 127 127
127 16 127 127 127 127 6 127 127 127 12 127 127 127 127 127 127 127 127 127 127 127 127 127 127 127 127 127 127 127 127 127 127 16 127 127 127 127 127 127 127 127 127 127 127 127 127 127 20 0 127 127 127 127 127 127 14 127 127 127 127 127 14 127 127 127 127 127 127 127 127 127
127 127 127 127 127 127 127 127 3 127 127 127 127 127 127 127 127 127 127 127 127 127 127 127 127 127 127 127 127 127 127 127 127 127 127 127 127 127 127 127 127 127 127 127 127 127 127 127 127 127 0 1 127 127 127 127 127 7 127 127 127 127 127 127 127 127 127 127 127 127 127 127
127 127 127 127 127 22 127 127 4 127 127 127 127 127 12 127 127 127 127 127 127 127 127 127 127 127 127 127 127 127 127 127 127 127 127 127 127 127 127 127 127 127 127 127 127 127 127 127 127 127 1 0 127 127 127 127 127 7 127 127 127 127 127 127 127 127 127 127 127 127 127 127
127 11 18 127 127 127 127 127 127 127 127 127 127 127 127 127 127 127 127 127 127 127 127 127 127 127 127 127 127 127 127 127 127 127 16 127 127 127 127 127 19 127 127 127 127 127 127 127 127 127 127 127 0 16 127 127 127 127 127 127 127 127 127 127 127 127 127 127 127 127 127 7
127 127 127 127 127 127 127 127 127 127 127 12 127 127 127 127 127 127 127 127 14 127 127 127 127 127 127 127 127 127 127 127 127 127 15 20 127 127 127 127 127 127 127 127 127 127 18 127 127 127 127 127 16 0 127 127 127 127 127 127 127 127 127 127 127 127 127 127 127 127 127 13
127 127 127 127 127 42 127 127 127 127 127 127 127 127 127 127 127 127 127 127 127 127 127 127 127 127 127 127 127 127 127 127 127 127 127 127 127 127 127 127 127 127 127 127 127 127 127 127 127 127 127 127 127 127 0 127 127 127 127 127 127 127 127 10 127 127 127 127 127 37 127 127
127 127 127 127 127 127 127 127 127 127 127 127 127 127 127 127 127 127 127 127 28 127 127 127 127 127 127 127 127 127 127 127 127 127 127 127 127 127 127 127 127 127 127 127 127 127 17 18 127 127 127 127 127 127 127 0 127 127 127 127 127 27 127 127 127 28 127 127 127 127 39 127
127 127 127 127 127 127 127 127 127 127 7 127 127 127 127 127 127 19 127 127 127 127 127 127 127 127 24 127 127 127 127 127 127 18 127 127 127 127 127 127 127 127 127 127 127 127 127 127 127 14 127 127 127 127 127 127 0 127 127 127 127 127 127 127 127 127 127 127 127 127 127 127
127 127 20 127 127 127 127 127 9 8 127 127 127 127 14 127 127 127 127 127 127 127 127 127 127 127 127 127 127 127 127 127 127 127 127 12 127 127 127 127 127 127 127 127 127 127 127 127 127 127 7 7 127 127 127 127 127 0 127 127 127 127 127 127 127 127 127 127 127 127 127 127
127 127 127 127 127 127 127 127 127 127 127 127 127 127 127 6 127 127 18 127 127 127 127 127 127 127 127 127 127 127 127 6 127 127 127 127 127 127 127 127 127 127 127 14 127 127 127 127 127 127 127 127 127 127 127 127 127 127 0 127 127 127 127 127 127 127 127 127 127 127 127 127
127 127 11 127 127 127 127 11 127 127 127 127 127 127 127 127 127 127 127 11 127 127 127 21 127 127 127 127 127 127 127 127 127 127 127 127 127 4 127 127 127 127 127 127 127 127 127 127 127 127 127 127 127 127 127 127 127 127 127 0 127 127 127 127 127 127 127 127 7 127 127 127
127 127 127 127 127 127 127 127 127 127 127 12 7 127 127 127 127 127 127 127 127 127 127 127 127 127 127 127 3 127 127 127 127 127 127 127 127 127 127 127 127 127 127 127 127 127 127 127 127 127 127 127 127 127 127 127 127 127 127 127 0 127 127 127 127 127 127 127 127 127 127 6
127 127 127 127 127 127 127 127 127 127 127 127 127 127 127 127 127 127 127 127 127 127 127 127 127 127 127 12 127 127 127 127 127 127 127 127 127 127 127 127 127 127 127 127 127 127 127 13 127 127 127 127 127 127 127 27 127 127 127 127 127 0 127 127 127 2 127 127 127 127 127 127
127 9 127 127 127 127 127 127 127 127 127 127 7 127 127 127 127 127 127 127 127 127 127 127 127 127 127 127 5 127 127 127 127 127 127 127 127 127 127 127 127 127 127 127 127 127 127 127 17 14 127 127 127 127 127 127 127 127 127 127 127 127 0 127 127 127 127 127 127 127 127 127
15 127 127 127 127 41 127 127 127 127 127 127 127 127 127 127 127 127 127 35 127 127 127 127 127 127 127 127 127 127 127 127 127 127 127 127 127 127 127 127 127 127 127 127 127 127 127 127 127 127 127 127 127 127 10 127 127 127 127 127 127 127 127 0 127 127 127 127 127 28 127 127
127 127 127 127 127 127 127 127 127 127 127 127 127 127 127 127 127 127 127 127 127 127 7 127 127 127 127 127 127 127 127 127 127 127 127 3 127 127 127 127 127 127 127 127 127 5 13 127 127 127 127 127 127 127 127 127 127 127 127 127 127 127 127 127 0 127 127 127 127 127 127 127
127 127 127 127 127 53 127 127 127 127 127 127 127 127 127 127 127 127 127 127 127 127 127 127 127 127 127 14 127 127 127 127 32 127 127 127 127 127 127 127 127 127 127 127 127 127 127 127 127 127 127 127 127 127 127 28 127 127 127 127 127 2 127 127 127 0 127 27 127 127 127 127
127 127 127 127 127 127 10 127 127 127 14 127 127 127 127 127 127 127 127 127 127 127 127 8 127 10 127 127 127 127 127 127 127 127 127 127 4 127 127 127 9 127 127 127 127 127 127 127 127 127 127 127 127 127 127 127 127 127 127 127 127 127 127 127 127 127 0 127 127 127 127 127
127 127 127 127 127 127 127 127 127 127 127 127 127 127 127 127 5 127 127 127 127 127 10 127 127 127 127 14 127 127 127 127 5 127 127 127 127 127 127 14 127 127 127 127 127 13 127 127 127 127 127 127 127 127 127 127 127 127 127 127 127 127 127 127 127 27 127 0 127 127 127 127
18 127 127 127 127 127 127 127 127 127 127 127 127 127 127 127 127 127 127 16 127 127 127 127 127 127 127 127 127 127 127 127 127 127 127 127 127 3 127 127 127 127 9 127 127 127 127 127 127 127 127 127 127 127 127 127 127 127 127 7 127 127 127 127 127 127 127 127 0 127 127 127
16 127 127 127 6 127 127 127 127 127 127 127 127 50 127 127 127 127 127 127 127 127 127 127 127 127 127 127 127 38 127 127 127 127 127 127 127 127 11 127 127 127 127 127 127 127 127 127 127 127 127 127 127 127 37 127 127 127 127 127 127 127 127 28 127 127 127 127 127 0 127 127
127 127 127 127 127 127 127 127 127 127 127 20 127 127 127 12 127 127 26 127 17 127 127 127 127 127 127 127 127 127 127 2 127 127 127 127 127 127 127 127 127 127 127 127 127 127 127 127 127 127 127 127 127 127 127 39 127 127 127 127 127 127 127 127 127 127 127 127 127 127 0 127
127 10 127 127 127 127 127 127 127 127 127 15 127 127 127 127 127 127 127 127 127 127 127 127 127 127 127 127 8 127 127 127 127 127 127 127 127 127 127 127 127 127 127 127 127 127 127 127 127 127 127 127 7 13 127 127 127 127 127 127 6 127 127 127 127 127 127 127 127 127 127 0
EOF
